(set-logic ALL)
(declare-fun var0 () String)
(assert (str.in_re var0 (re.++ (re.union (re.union (str.to_re "000") (str.to_re "111")) (re.union (str.to_re "222") (str.to_re "33"))) (re.++ (re.+ (re.+ (str.to_re "4"))) (re.++ (re.union (re.* (str.to_re "55")) (re.* (str.to_re "66"))) (re.++ (re.+ (re.* (str.to_re "777"))) (re.++ (re.union (re.union (str.to_re "8") (str.to_re "99")) (re.union (str.to_re "aaa") (str.to_re "b"))) (re.++ (re.* (re.+ (str.to_re "cc"))) (re.++ (re.union (re.* (str.to_re "ddd")) (re.* (str.to_re "eee"))) (re.++ (re.+ (re.union (str.to_re "f") (str.to_re "gg"))) (re.++ (re.* (re.union (str.to_re "hhh") (str.to_re "i"))) (re.+ (re.union (str.to_re "jj") (str.to_re "kk"))))))))))))))
(assert (<= 401 (str.len var0)))
(check-sat)